data/processed_heuristic-threshold/instances/1/9/ds_822_courier_435/pairwise.tsp
NAME: ds_822_courier_435
TYPE: TSP
COMMENT: nil
DIMENSION: 10
EDGE_WEIGHT_TYPE: EXPLICIT
EDGE_WEIGHT_FORMAT: FULL_MATRIX
EDGE_WEIGHT_SECTION
9999 1109 1034 1381 723 1744 849 3002 1040 1247 
1109 9999 101 1726 567 1599 1474 1902 289 1295 
1034 101 9999 1627 467 1520 1374 1990 205 1201 
1381 1726 1627 9999 1199 725 563 3366 1450 489 
723 567 467 1199 9999 1244 907 2425 364 829 
1744 1599 1520 725 1244 9999 1132 2897 1315 501 
849 1474 1374 563 907 1132 9999 3294 1246 671 
3002 1902 1990 3366 2425 2897 3294 9999 2063 2877 
1040 289 205 1450 364 1315 1246 2063 9999 1009 
1247 1295 1201 489 829 501 671 2877 1009 9999 
