data/processed_heuristic-threshold/instances/1/9/ds_822_courier_435/pairwise.sol
10
0 6 3 9 5 7 1 2 8 4 
